units real
dimension 3
boundary s s s
atom_style molecular